p wcnf 94 52 1
1 -1 7 
1 -2 8 
1 -3 9 
1 -4 10 
1 -5 11 
1 -6 12 
1 -13 1 
1 -14 1 
1 -15 1 
1 -16 1 
1 -17 1 
1 -18 1 
1 -13 19 
1 -13 20 
1 -13 21 
1 -13 22 
1 -13 23 
1 -14 20 
1 -14 21 
1 -14 22 
1 -14 23 
1 -14 24 
1 -15 21 
1 -15 22 
1 -15 23 
1 -15 24 
1 -15 25 
1 -16 22 
1 -16 23 
1 -16 24 
1 -16 25 
1 -16 26 
1 -17 23 
1 -17 24 
1 -17 25 
1 -17 26 
1 -17 27 
1 -18 24 
1 -18 25 
1 -18 26 
1 -18 27 
1 -18 28 
1 -29 1 
1 -30 1 
1 -31 1 
1 -32 1 
1 -33 1 
1 -34 1 
1 -29 35 
1 -29 36 
1 -29 37 
1 -29 38 
1 -29 39 
1 -29 40 
1 -30 36 
1 -30 37 
1 -30 38 
1 -30 39 
1 -30 40 
1 -30 41 
1 -31 37 
1 -31 38 
1 -31 39 
1 -31 40 
1 -31 41 
1 -31 42 
1 -32 38 
1 -32 39 
1 -32 40 
1 -32 41 
1 -32 42 
1 -32 43 
1 -33 39 
1 -33 40 
1 -33 41 
1 -33 42 
1 -33 43 
1 -33 44 
1 -34 40 
1 -34 41 
1 -34 42 
1 -34 43 
1 -34 44 
1 -34 45 
1 -46 13 
1 -47 13 
1 -46 48 
1 -46 49 
1 -47 49 
1 -47 50 
1 -51 29 46 
1 -51 52 
1 13 14 15 16 17 18 29 30 31 32 33 34 
1 13 14 15 16 17 18 29 30 31 32 33 34 46 47 
1 52 
